c Random generated cnf formula, satisfiable: false
p cnf 10 50
-7 5 9 0
1 6 9 0
-9 7 -8 0
10 5 2 0
9 1 7 0
-4 -3 10 0
-7 6 -4 0
-5 -4 -9 0
-4 -3 -5 0
-10 7 -3 0
9 4 -3 0
2 6 9 0
7 -1 3 0
-2 -1 -9 0
-6 -4 -2 0
-7 9 -10 0
3 7 -2 0
-3 -9 5 0
8 -10 -3 0
6 1 3 0
2 -10 -8 0
-2 -5 6 0
-9 -10 -6 0
3 -6 -4 0
-7 2 -1 0
-5 -2 3 0
3 -6 -4 0
-9 -5 7 0
-4 9 -5 0
2 -9 -10 0
-5 -1 10 0
-7 -2 3 0
-2 -1 -9 0
5 9 -2 0
-3 5 -9 0
5 3 -8 0
-7 1 -9 0
4 -2 3 0
6 -10 7 0
10 -9 -1 0
2 -6 -4 0
-10 8 4 0
4 -7 -8 0
7 -8 -5 0
3 9 7 0
-4 3 8 0
-9 -6 -4 0
-7 10 2 0
-1 9 -5 0
-3 6 7 0
